60

 0   2   3   3   4   2   2   1   2   4   5   2   3   3   6   4   4   3   3   3   4   5   7   7   7   8   5   5   5   5   4   4   5   5   6   7   7   8   8   9   9   6   5   5   5   6   7   7   7   8   9  10   7   7   6   6   7   9  10  10  
 2   0   1   1   2   4   4   3   2   2   3   4   3   3   4   6   6   5   5   5   4   3   5   5   5   6   7   7   7   7   6   6   5   5   4   5   5   6   6   7   7   8   7   7   7   6   5   5   5   6   7   8   9   9   8   8   7   7   8   8  
 3   1   0   0   1   5   5   4   3   1   2   5   4   4   3   7   7   6   6   6   5   4   4   4   4   5   8   8   8   8   7   7   6   6   5   4   4   5   5   6   6   9   8   8   8   7   6   6   6   5   6   7  10  10   9   9   8   6   7   7  
 3   1   0   0   1   5   5   4   3   1   2   5   4   4   3   7   7   6   6   6   5   4   4   4   4   5   8   8   8   8   7   7   6   6   5   4   4   5   5   6   6   9   8   8   8   7   6   6   6   5   6   7  10  10   9   9   8   6   7   7  
 4   2   1   1   0   6   6   5   4   2   1   6   5   5   2   8   8   7   7   7   6   5   3   3   3   4   9   9   9   9   8   8   7   7   6   5   5   4   4   5   5  10   9   9   9   8   7   7   7   6   5   6  11  11  10  10   9   7   6   6  
 2   4   5   5   6   0   0   1   2   4   5   2   3   3   6   2   2   3   3   3   4   5   7   7   7   8   3   3   3   3   4   4   5   5   6   7   7   8   8   9   9   4   5   5   5   6   7   7   7   8   9  10   5   5   6   6   7   9  10  10  
 2   4   5   5   6   0   0   1   2   4   5   2   3   3   6   2   2   3   3   3   4   5   7   7   7   8   3   3   3   3   4   4   5   5   6   7   7   8   8   9   9   4   5   5   5   6   7   7   7   8   9  10   5   5   6   6   7   9  10  10  
 1   3   4   4   5   1   1   0   1   3   4   1   2   2   5   3   3   2   2   2   3   4   6   6   6   7   4   4   4   4   3   3   4   4   5   6   6   7   7   8   8   5   4   4   4   5   6   6   6   7   8   9   6   6   5   5   6   8   9   9  
 2   2   3   3   4   2   2   1   0   2   3   2   1   1   4   4   4   3   3   3   2   3   5   5   5   6   5   5   5   5   4   4   3   3   4   5   5   6   6   7   7   6   5   5   5   4   5   5   5   6   7   8   7   7   6   6   5   7   8   8  
 4   2   1   1   2   4   4   3   2   0   1   4   3   3   2   6   6   5   5   5   4   3   3   3   3   4   7   7   7   7   6   6   5   5   4   3   3   4   4   5   5   8   7   7   7   6   5   5   5   4   5   6   9   9   8   8   7   5   6   6  
 5   3   2   2   1   5   5   4   3   1   0   5   4   4   1   7   7   6   6   6   5   4   2   2   2   3   8   8   8   8   7   7   6   6   5   4   4   3   3   4   4   9   8   8   8   7   6   6   6   5   4   5  10  10   9   9   8   6   5   5  
 2   4   5   5   6   2   2   1   2   4   5   0   1   1   4   2   2   1   1   1   2   3   5   5   5   6   3   3   3   3   2   2   3   3   4   5   5   6   6   7   7   4   3   3   3   4   5   5   5   6   7   8   5   5   4   4   5   7   8   8  
 3   3   4   4   5   3   3   2   1   3   4   1   0   0   3   3   3   2   2   2   1   2   4   4   4   5   4   4   4   4   3   3   2   2   3   4   4   5   5   6   6   5   4   4   4   3   4   4   4   5   6   7   6   6   5   5   4   6   7   7  
 3   3   4   4   5   3   3   2   1   3   4   1   0   0   3   3   3   2   2   2   1   2   4   4   4   5   4   4   4   4   3   3   2   2   3   4   4   5   5   6   6   5   4   4   4   3   4   4   4   5   6   7   6   6   5   5   4   6   7   7  
 6   4   3   3   2   6   6   5   4   2   1   4   3   3   0   6   6   5   5   5   4   3   1   1   1   2   7   7   7   7   6   6   5   5   4   3   3   2   2   3   3   8   7   7   7   6   5   5   5   4   3   4   9   9   8   8   7   5   4   4  
 4   6   7   7   8   2   2   3   4   6   7   2   3   3   6   0   0   1   1   1   2   3   5   5   5   6   1   1   1   1   2   2   3   3   4   5   5   6   6   7   7   2   3   3   3   4   5   5   5   6   7   8   3   3   4   4   5   7   8   8  
 4   6   7   7   8   2   2   3   4   6   7   2   3   3   6   0   0   1   1   1   2   3   5   5   5   6   1   1   1   1   2   2   3   3   4   5   5   6   6   7   7   2   3   3   3   4   5   5   5   6   7   8   3   3   4   4   5   7   8   8  
 3   5   6   6   7   3   3   2   3   5   6   1   2   2   5   1   1   0   0   0   1   2   4   4   4   5   2   2   2   2   1   1   2   2   3   4   4   5   5   6   6   3   2   2   2   3   4   4   4   5   6   7   4   4   3   3   4   6   7   7  
 3   5   6   6   7   3   3   2   3   5   6   1   2   2   5   1   1   0   0   0   1   2   4   4   4   5   2   2   2   2   1   1   2   2   3   4   4   5   5   6   6   3   2   2   2   3   4   4   4   5   6   7   4   4   3   3   4   6   7   7  
 3   5   6   6   7   3   3   2   3   5   6   1   2   2   5   1   1   0   0   0   1   2   4   4   4   5   2   2   2   2   1   1   2   2   3   4   4   5   5   6   6   3   2   2   2   3   4   4   4   5   6   7   4   4   3   3   4   6   7   7  
 4   4   5   5   6   4   4   3   2   4   5   2   1   1   4   2   2   1   1   1   0   1   3   3   3   4   3   3   3   3   2   2   1   1   2   3   3   4   4   5   5   4   3   3   3   2   3   3   3   4   5   6   5   5   4   4   3   5   6   6  
 5   3   4   4   5   5   5   4   3   3   4   3   2   2   3   3   3   2   2   2   1   0   2   2   2   3   4   4   4   4   3   3   2   2   1   2   2   3   3   4   4   5   4   4   4   3   2   2   2   3   4   5   6   6   5   5   4   4   5   5  
 7   5   4   4   3   7   7   6   5   3   2   5   4   4   1   5   5   4   4   4   3   2   0   0   0   1   6   6   6   6   5   5   4   4   3   2   2   1   1   2   2   7   6   6   6   5   4   4   4   3   2   3   8   8   7   7   6   4   3   3  
 7   5   4   4   3   7   7   6   5   3   2   5   4   4   1   5   5   4   4   4   3   2   0   0   0   1   6   6   6   6   5   5   4   4   3   2   2   1   1   2   2   7   6   6   6   5   4   4   4   3   2   3   8   8   7   7   6   4   3   3  
 7   5   4   4   3   7   7   6   5   3   2   5   4   4   1   5   5   4   4   4   3   2   0   0   0   1   6   6   6   6   5   5   4   4   3   2   2   1   1   2   2   7   6   6   6   5   4   4   4   3   2   3   8   8   7   7   6   4   3   3  
 8   6   5   5   4   8   8   7   6   4   3   6   5   5   2   6   6   5   5   5   4   3   1   1   1   0   7   7   7   7   6   6   5   5   4   3   3   2   2   1   1   8   7   7   7   6   5   5   5   4   3   2   9   9   8   8   7   5   4   4  
 5   7   8   8   9   3   3   4   5   7   8   3   4   4   7   1   1   2   2   2   3   4   6   6   6   7   0   0   0   0   1   1   2   2   3   4   4   5   5   6   6   1   2   2   2   3   4   4   4   5   6   7   2   2   3   3   4   6   7   7  
 5   7   8   8   9   3   3   4   5   7   8   3   4   4   7   1   1   2   2   2   3   4   6   6   6   7   0   0   0   0   1   1   2   2   3   4   4   5   5   6   6   1   2   2   2   3   4   4   4   5   6   7   2   2   3   3   4   6   7   7  
 5   7   8   8   9   3   3   4   5   7   8   3   4   4   7   1   1   2   2   2   3   4   6   6   6   7   0   0   0   0   1   1   2   2   3   4   4   5   5   6   6   1   2   2   2   3   4   4   4   5   6   7   2   2   3   3   4   6   7   7  
 5   7   8   8   9   3   3   4   5   7   8   3   4   4   7   1   1   2   2   2   3   4   6   6   6   7   0   0   0   0   1   1   2   2   3   4   4   5   5   6   6   1   2   2   2   3   4   4   4   5   6   7   2   2   3   3   4   6   7   7  
 4   6   7   7   8   4   4   3   4   6   7   2   3   3   6   2   2   1   1   1   2   3   5   5   5   6   1   1   1   1   0   0   1   1   2   3   3   4   4   5   5   2   1   1   1   2   3   3   3   4   5   6   3   3   2   2   3   5   6   6  
 4   6   7   7   8   4   4   3   4   6   7   2   3   3   6   2   2   1   1   1   2   3   5   5   5   6   1   1   1   1   0   0   1   1   2   3   3   4   4   5   5   2   1   1   1   2   3   3   3   4   5   6   3   3   2   2   3   5   6   6  
 5   5   6   6   7   5   5   4   3   5   6   3   2   2   5   3   3   2   2   2   1   2   4   4   4   5   2   2   2   2   1   1   0   0   1   2   2   3   3   4   4   3   2   2   2   1   2   2   2   3   4   5   4   4   3   3   2   4   5   5  
 5   5   6   6   7   5   5   4   3   5   6   3   2   2   5   3   3   2   2   2   1   2   4   4   4   5   2   2   2   2   1   1   0   0   1   2   2   3   3   4   4   3   2   2   2   1   2   2   2   3   4   5   4   4   3   3   2   4   5   5  
 6   4   5   5   6   6   6   5   4   4   5   4   3   3   4   4   4   3   3   3   2   1   3   3   3   4   3   3   3   3   2   2   1   1   0   1   1   2   2   3   3   4   3   3   3   2   1   1   1   2   3   4   5   5   4   4   3   3   4   4  
 7   5   4   4   5   7   7   6   5   3   4   5   4   4   3   5   5   4   4   4   3   2   2   2   2   3   4   4   4   4   3   3   2   2   1   0   0   1   1   2   2   5   4   4   4   3   2   2   2   1   2   3   6   6   5   5   4   2   3   3  
 7   5   4   4   5   7   7   6   5   3   4   5   4   4   3   5   5   4   4   4   3   2   2   2   2   3   4   4   4   4   3   3   2   2   1   0   0   1   1   2   2   5   4   4   4   3   2   2   2   1   2   3   6   6   5   5   4   2   3   3  
 8   6   5   5   4   8   8   7   6   4   3   6   5   5   2   6   6   5   5   5   4   3   1   1   1   2   5   5   5   5   4   4   3   3   2   1   1   0   0   1   1   6   5   5   5   4   3   3   3   2   1   2   7   7   6   6   5   3   2   2  
 8   6   5   5   4   8   8   7   6   4   3   6   5   5   2   6   6   5   5   5   4   3   1   1   1   2   5   5   5   5   4   4   3   3   2   1   1   0   0   1   1   6   5   5   5   4   3   3   3   2   1   2   7   7   6   6   5   3   2   2  
 9   7   6   6   5   9   9   8   7   5   4   7   6   6   3   7   7   6   6   6   5   4   2   2   2   1   6   6   6   6   5   5   4   4   3   2   2   1   1   0   0   7   6   6   6   5   4   4   4   3   2   1   8   8   7   7   6   4   3   3  
 9   7   6   6   5   9   9   8   7   5   4   7   6   6   3   7   7   6   6   6   5   4   2   2   2   1   6   6   6   6   5   5   4   4   3   2   2   1   1   0   0   7   6   6   6   5   4   4   4   3   2   1   8   8   7   7   6   4   3   3  
 6   8   9   9  10   4   4   5   6   8   9   4   5   5   8   2   2   3   3   3   4   5   7   7   7   8   1   1   1   1   2   2   3   3   4   5   5   6   6   7   7   0   1   1   1   2   3   3   3   4   5   6   1   1   2   2   3   5   6   6  
 5   7   8   8   9   5   5   4   5   7   8   3   4   4   7   3   3   2   2   2   3   4   6   6   6   7   2   2   2   2   1   1   2   2   3   4   4   5   5   6   6   1   0   0   0   1   2   2   2   3   4   5   2   2   1   1   2   4   5   5  
 5   7   8   8   9   5   5   4   5   7   8   3   4   4   7   3   3   2   2   2   3   4   6   6   6   7   2   2   2   2   1   1   2   2   3   4   4   5   5   6   6   1   0   0   0   1   2   2   2   3   4   5   2   2   1   1   2   4   5   5  
 5   7   8   8   9   5   5   4   5   7   8   3   4   4   7   3   3   2   2   2   3   4   6   6   6   7   2   2   2   2   1   1   2   2   3   4   4   5   5   6   6   1   0   0   0   1   2   2   2   3   4   5   2   2   1   1   2   4   5   5  
 6   6   7   7   8   6   6   5   4   6   7   4   3   3   6   4   4   3   3   3   2   3   5   5   5   6   3   3   3   3   2   2   1   1   2   3   3   4   4   5   5   2   1   1   1   0   1   1   1   2   3   4   3   3   2   2   1   3   4   4  
 7   5   6   6   7   7   7   6   5   5   6   5   4   4   5   5   5   4   4   4   3   2   4   4   4   5   4   4   4   4   3   3   2   2   1   2   2   3   3   4   4   3   2   2   2   1   0   0   0   1   2   3   4   4   3   3   2   2   3   3  
 7   5   6   6   7   7   7   6   5   5   6   5   4   4   5   5   5   4   4   4   3   2   4   4   4   5   4   4   4   4   3   3   2   2   1   2   2   3   3   4   4   3   2   2   2   1   0   0   0   1   2   3   4   4   3   3   2   2   3   3  
 7   5   6   6   7   7   7   6   5   5   6   5   4   4   5   5   5   4   4   4   3   2   4   4   4   5   4   4   4   4   3   3   2   2   1   2   2   3   3   4   4   3   2   2   2   1   0   0   0   1   2   3   4   4   3   3   2   2   3   3  
 8   6   5   5   6   8   8   7   6   4   5   6   5   5   4   6   6   5   5   5   4   3   3   3   3   4   5   5   5   5   4   4   3   3   2   1   1   2   2   3   3   4   3   3   3   2   1   1   1   0   1   2   5   5   4   4   3   1   2   2  
 9   7   6   6   5   9   9   8   7   5   4   7   6   6   3   7   7   6   6   6   5   4   2   2   2   3   6   6   6   6   5   5   4   4   3   2   2   1   1   2   2   5   4   4   4   3   2   2   2   1   0   1   6   6   5   5   4   2   1   1  
10   8   7   7   6  10  10   9   8   6   5   8   7   7   4   8   8   7   7   7   6   5   3   3   3   2   7   7   7   7   6   6   5   5   4   3   3   2   2   1   1   6   5   5   5   4   3   3   3   2   1   0   7   7   6   6   5   3   2   2  
 7   9  10  10  11   5   5   6   7   9  10   5   6   6   9   3   3   4   4   4   5   6   8   8   8   9   2   2   2   2   3   3   4   4   5   6   6   7   7   8   8   1   2   2   2   3   4   4   4   5   6   7   0   0   1   1   2   4   5   5  
 7   9  10  10  11   5   5   6   7   9  10   5   6   6   9   3   3   4   4   4   5   6   8   8   8   9   2   2   2   2   3   3   4   4   5   6   6   7   7   8   8   1   2   2   2   3   4   4   4   5   6   7   0   0   1   1   2   4   5   5  
 6   8   9   9  10   6   6   5   6   8   9   4   5   5   8   4   4   3   3   3   4   5   7   7   7   8   3   3   3   3   2   2   3   3   4   5   5   6   6   7   7   2   1   1   1   2   3   3   3   4   5   6   1   1   0   0   1   3   4   4  
 6   8   9   9  10   6   6   5   6   8   9   4   5   5   8   4   4   3   3   3   4   5   7   7   7   8   3   3   3   3   2   2   3   3   4   5   5   6   6   7   7   2   1   1   1   2   3   3   3   4   5   6   1   1   0   0   1   3   4   4  
 7   7   8   8   9   7   7   6   5   7   8   5   4   4   7   5   5   4   4   4   3   4   6   6   6   7   4   4   4   4   3   3   2   2   3   4   4   5   5   6   6   3   2   2   2   1   2   2   2   3   4   5   2   2   1   1   0   2   3   3  
 9   7   6   6   7   9   9   8   7   5   6   7   6   6   5   7   7   6   6   6   5   4   4   4   4   5   6   6   6   6   5   5   4   4   3   2   2   3   3   4   4   5   4   4   4   3   2   2   2   1   2   3   4   4   3   3   2   0   1   1  
10   8   7   7   6  10  10   9   8   6   5   8   7   7   4   8   8   7   7   7   6   5   3   3   3   4   7   7   7   7   6   6   5   5   4   3   3   2   2   3   3   6   5   5   5   4   3   3   3   2   1   2   5   5   4   4   3   1   0   0  
10   8   7   7   6  10  10   9   8   6   5   8   7   7   4   8   8   7   7   7   6   5   3   3   3   4   7   7   7   7   6   6   5   5   4   3   3   2   2   3   3   6   5   5   5   4   3   3   3   2   1   2   5   5   4   4   3   1   0   0  

 0  24  37  24  32  20  21  31  34  22   8  24  30  33   4  26  24  19  26  23  24  24  31  24  17  23  12  18  24  33  24  25  28  25  29  13  25  25  11  24  24  23  23  10  12  30  39  17  35  27  23  24  22  27  38  25  25  28  25  28  
 0   0   6  33  15  24  42  24  24  31  24  47  22  20  15  17  15  13  24  29  24  24  24  19  24  10  33  24  26  20  24  24  24  29  19  24  33  24   8  33  24  26  24  35  15  33  10  15  33  24  24  24  28  33  19  33  24  29  24  24  
 0   0   0  39   9  16  38  24  27  30  30  42  17   0  22  16   9  13  24  24  21  24  20  12  31   6  51  40  27   3  21  28  24  30  24  30  37  27  15  33  21  20  37  34  11  33  12  12  33  18  27  30  33  43  23  23  27  33   6  45  
 0   0   0   0  33  30   5  24  25  15  24  15  24  33  43  24  39  39  24  24  24  24  24  14  23  24  24  24  24  24  24  23  24  28  24  24  24  24  33  26  40  14  14  24  34  15  43  24  15  14  24  28  24  15  18  15  24  24  41  18  
 0   0   0   0   0  24  41  24  17  39  24  33  25   9  21  24  16  15  24  24  18  24  21  24  24  25  24  29  30  25  24  24  24  23  24  24  24  30  15  33  24  31  31  24  12  33  12  24  26  25  24  24  25  33  17  32  24  24  19  30  
 0   0   0   0   0   0  24  24  24  28  20  24  24  24  24  24  18  18  24  24  24  24  20  33  31  33  11  24  24  28  24  28  28  30  28  24  35  28  20  24  18  24  28  20  16  24  28  20  24  33  24  30  24  28  30  17  24  19  27  25  
 0   0   0   0   0   0   0  24  31   5  28   6  23  33  37  33  31  42  25  26  24  24  26  13  24  32  19  25  24  28  24  27  21  35  19  24  11  14  47  25  34   9  17  19  31  16  40  37  20  12  25  34  15  19  31  16  23  20  35  20  
 0   0   0   0   0   0   0   0  24  24  24  24  24  24  35  24  24  24  24  24  24  24  24  24  27  24  24  24  24  28  24  24  24  24  24  24  24  28  24  24  24  24  24  24  31  17  17  24  24  24  24  24  24  24  24  24  24  24  20  28  
 0   0   0   0   0   0   0   0   0  31  25  24  24  24  31  24  24  24  21  24  24  24  17  24  25  24  24  24  24  27  24  25  26  24  26  27  27  28  24  25  26  31  24  27  23  24  21  27  12  19  24  24  24  21  17  22  24  24  23  24  
 0   0   0   0   0   0   0   0   0   0  28  15  23  33  25  29  34  35  21  24  27  24  31  21  24  25  28  26  23  21  21  24  20  23  20  24  20  12  39  15  27  22  28  27  38  14  28  28  19  25  27  24  26  18  31  11  27  20  20  20  
 0   0   0   0   0   0   0   0   0   0   0  24  27  33  24  36  21  20  17  24  24  24  31  24  21  24  11  24  21  34  24  27  40  24  30   9  25  31   4  26  23  24  27  17  17  24  31  17  25  35  17  27  24  27  24  22  24  28  24  28  
 0   0   0   0   0   0   0   0   0   0   0   0  24  28  33  33  38  33  24  19  24  24  24  29  24  38  15  24  24  28  24  24  24  19  29  24  15  24  42  15  24  24  24  10  33  15  38  33  15  24  24  24  20  15  29  15  24  19  24  24  
 0   0   0   0   0   0   0   0   0   0   0   0   0  24  32  30  26  22  27  24  24  24  24  24  27  23  24  32  29  23  24  21  21  25  24  27  24  25  26  24  27  19  20  33  26  24  25  24  24  20  24  21  23  24  17  25  24  24  25  24  
 0   0   0   0   0   0   0   0   0   0   0   0   0   0  20  15  15  15  24  19  18  24  24  29  24  29  33  30  25  10  24  24  24  19  29  33  24  29  24  33  24  24  35  24  15  33  19  19  33  24  24  24  29  33  24  33  24  19  19  30  
 0   0   0   0   0   0   0   0   0   0   0   0   0   0   0  17  16  15  24  24  24  24  31  34  21  25  24  16  29  21  24  24  24  13  24  24  24   7  15  23  14  34  30  17   9  40   6  29  40  35  24  14  25  33  43  32  24  24  22  20  
 0   0   0   0   0   0   0   0   0   0   0   0   0   0   0   0  27  26  30  24  21  24  24  27  27  15  42  14  28   6  27  21  21  24  24  36  33  24  22  24  24  26  18  27  27  24  24  15  27  21  21  21  33  21  31  27  21  24  27  24  
 0   0   0   0   0   0   0   0   0   0   0   0   0   0   0   0   0  10  22  25  24  24  24  24  21  23  23  25  21  23  24  26  27  31  23  20  24  25  15  33  15  25  26  29  11  34  16  24  32  25  25  33  24  33  30  34  23  24  19  30  
 0   0   0   0   0   0   0   0   0   0   0   0   0   0   0   0   0   0  23  23  24  24  28  24  24  24  21  24  26  28  24  21  28  30  29  25  28  28  13  33  18  25  20  22  15  32  19  20  34  25  23  30  23  29  30  33  25  28  18  34  
 0   0   0   0   0   0   0   0   0   0   0   0   0   0   0   0   0   0   0  23  27  24  31  21  21  24  25  27  18  27  21  28  34  24  25  25  27  21  17  24  24  26  30  24  21  23  21  27  19  32  19  27  23  24  24  21  28  24  21  24  
 0   0   0   0   0   0   0   0   0   0   0   0   0   0   0   0   0   0   0   0  24  24  25  30  24  29  24  24  24  19  24  25  23  19  30  24  24  24  23  24  24  22  24  24  25  23  29  24  26  25  23  24  28  24  29  24  25  19  24  24  
 0   0   0   0   0   0   0   0   0   0   0   0   0   0   0   0   0   0   0   0   0  24  24  27  24  24  24  27  33  24  27  24  24  24  24  24  24  24  24  24  21  21  27  27  24  24  18  24  27  24  21  24  24  21  24  27  21  24  27  30  
 0   0   0   0   0   0   0   0   0   0   0   0   0   0   0   0   0   0   0   0   0   0  24  24  24  24  24  24  24  24  24  24  24  24  24  24  24  24  24  24  24  24  24  24  24  24  24  24  24  24  24  24  24  24  24  24  24  24  24  24  
 0   0   0   0   0   0   0   0   0   0   0   0   0   0   0   0   0   0   0   0   0   0   0  23  24  24  25  24  24  24  24  28  18  24  24  25  24  31  32  24  24  32  28  24  23  24  20  24  16  17  31  24  24  28  17  24  24  24  28  24  
 0   0   0   0   0   0   0   0   0   0   0   0   0   0   0   0   0   0   0   0   0   0   0   0  24  10  34  27  21  29  21  24  25  39  19  25  24  24  25  34  37  18  17  21  23  24  29  24  20   5  27  34  19  27  19  21  27  38  22  33  
 0   0   0   0   0   0   0   0   0   0   0   0   0   0   0   0   0   0   0   0   0   0   0   0   0  24  24  24  21  28  24  26  27  24  24  21  17  28  24  25  21  24  27  24  15  31  31  24  24  27  24  27  24  24  24  31  24  24  21  28  
 0   0   0   0   0   0   0   0   0   0   0   0   0   0   0   0   0   0   0   0   0   0   0   0   0   0  42  25  24  19  24  24  24  30  19  24  33  25  15  24  24  24  23  33  23  24  20  15  24  14  24  24  27  24  19  25  24  38  16  33  
 0   0   0   0   0   0   0   0   0   0   0   0   0   0   0   0   0   0   0   0   0   0   0   0   0   0   0  24  24  46  24  23  27  24  27  13  19  28  19  24  24  24  24  11  21  25  28  29  24  32  25  24  16  24  24  24  23  19  33  19  
 0   0   0   0   0   0   0   0   0   0   0   0   0   0   0   0   0   0   0   0   0   0   0   0   0   0   0   0  21  25  27  24  24  23  24  24  24  23  24  24  21  28  16  20  25  24  29  24  27  25  21  24  25  21  31  26  21  24  26  18  
 0   0   0   0   0   0   0   0   0   0   0   0   0   0   0   0   0   0   0   0   0   0   0   0   0   0   0   0   0  24  21  27  27  24  24  21  24  29  22  24  24  25  29  19  21  24  35  19  21  27  27  27  24  27  19  21  27  24  16  18  
 0   0   0   0   0   0   0   0   0   0   0   0   0   0   0   0   0   0   0   0   0   0   0   0   0   0   0   0   0   0  24  24  20  20  25  30  26  20  28  24  24  24  23  34  27  24  29  16  27  26  24  24  37  27  29  25  24  15  29  16  
 0   0   0   0   0   0   0   0   0   0   0   0   0   0   0   0   0   0   0   0   0   0   0   0   0   0   0   0   0   0   0  24  24  24  24  24  24  24  24  24  27  27  27  21  24  24  24  24  21  24  27  24  24  27  24  21  27  24  21  24  
 0   0   0   0   0   0   0   0   0   0   0   0   0   0   0   0   0   0   0   0   0   0   0   0   0   0   0   0   0   0   0   0  21  24  23  26  24  24  24  25  27  25  17  24  32  25  24  24  23  20  25  21  25  20  24  24  23  24  25  24  
 0   0   0   0   0   0   0   0   0   0   0   0   0   0   0   0   0   0   0   0   0   0   0   0   0   0   0   0   0   0   0   0   0  24  18  26  20  20  34  22  25  23  21  28  32  24  20  28  27  16  31  21  24  24  24  26  24  20  24  20  
 0   0   0   0   0   0   0   0   0   0   0   0   0   0   0   0   0   0   0   0   0   0   0   0   0   0   0   0   0   0   0   0   0   0  29  24  24  23  24  14  20  34  35  24  25  24  18  24  24  35  24   8  30  24  23  23  24  19  19  18  
 0   0   0   0   0   0   0   0   0   0   0   0   0   0   0   0   0   0   0   0   0   0   0   0   0   0   0   0   0   0   0   0   0   0   0  23  20  20  28  22  22  25  24  28  28  25  15  33  25  25  25  24  20  24  19  26  28  25  24  20  
 0   0   0   0   0   0   0   0   0   0   0   0   0   0   0   0   0   0   0   0   0   0   0   0   0   0   0   0   0   0   0   0   0   0   0   0  21  27  14  24  21  24  27  21  22  25  27  21  27  29  25  27  25  27  24  24  23  24  24  24  
 0   0   0   0   0   0   0   0   0   0   0   0   0   0   0   0   0   0   0   0   0   0   0   0   0   0   0   0   0   0   0   0   0   0   0   0   0  23  37  24  24  24  24  16  28  24  23  34  27  27  24  24  15  27  24  31  24  20  24  20  
 0   0   0   0   0   0   0   0   0   0   0   0   0   0   0   0   0   0   0   0   0   0   0   0   0   0   0   0   0   0   0   0   0   0   0   0   0   0  28  24  24  17  20  31  29  24  11  36  28  22  24  24  25  21  36  23  24  20  32  16  
 0   0   0   0   0   0   0   0   0   0   0   0   0   0   0   0   0   0   0   0   0   0   0   0   0   0   0   0   0   0   0   0   0   0   0   0   0   0   0  33  24  21  24  27  12  33  19  11  34  31  17  24  33  33  24  33  24  28  24  28  
 0   0   0   0   0   0   0   0   0   0   0   0   0   0   0   0   0   0   0   0   0   0   0   0   0   0   0   0   0   0   0   0   0   0   0   0   0   0   0   0  12  34  34  24  32  15  23  24  17  36  24  14  24  15  24  17  24  24  13  24  
 0   0   0   0   0   0   0   0   0   0   0   0   0   0   0   0   0   0   0   0   0   0   0   0   0   0   0   0   0   0   0   0   0   0   0   0   0   0   0   0   0  31  34  27  21  24  14  24  29  39  21  23  24  21  30  29  21  24  11  30  
 0   0   0   0   0   0   0   0   0   0   0   0   0   0   0   0   0   0   0   0   0   0   0   0   0   0   0   0   0   0   0   0   0   0   0   0   0   0   0   0   0   0  11  32  25  23  34  24  36  15  20  34  23  21  24  27  22  24  37  24  
 0   0   0   0   0   0   0   0   0   0   0   0   0   0   0   0   0   0   0   0   0   0   0   0   0   0   0   0   0   0   0   0   0   0   0   0   0   0   0   0   0   0   0  27  30  24  36  29  27  10  21  31  23  17  29  28  21  24  43  18  
 0   0   0   0   0   0   0   0   0   0   0   0   0   0   0   0   0   0   0   0   0   0   0   0   0   0   0   0   0   0   0   0   0   0   0   0   0   0   0   0   0   0   0   0  20  24  31  26  24  27  27  24  15  30  31  21  27  28  21  28  
 0   0   0   0   0   0   0   0   0   0   0   0   0   0   0   0   0   0   0   0   0   0   0   0   0   0   0   0   0   0   0   0   0   0   0   0   0   0   0   0   0   0   0   0   0  40  31  20  32  26  24  27  23  37  24  34  24  28  20  28  
 0   0   0   0   0   0   0   0   0   0   0   0   0   0   0   0   0   0   0   0   0   0   0   0   0   0   0   0   0   0   0   0   0   0   0   0   0   0   0   0   0   0   0   0   0   0  26  24  16  25  23  24  24  15  24  15  25  24  24  24  
 0   0   0   0   0   0   0   0   0   0   0   0   0   0   0   0   0   0   0   0   0   0   0   0   0   0   0   0   0   0   0   0   0   0   0   0   0   0   0   0   0   0   0   0   0   0   0  36  30  32  24  14  20  30  24  32  24  25  22  26  
 0   0   0   0   0   0   0   0   0   0   0   0   0   0   0   0   0   0   0   0   0   0   0   0   0   0   0   0   0   0   0   0   0   0   0   0   0   0   0   0   0   0   0   0   0   0   0   0  27  27  24  24  33  27  19  24  19  28  19  28  
 0   0   0   0   0   0   0   0   0   0   0   0   0   0   0   0   0   0   0   0   0   0   0   0   0   0   0   0   0   0   0   0   0   0   0   0   0   0   0   0   0   0   0   0   0   0   0   0   0  18  28  24  25  15  17  10  26  24  21  24  
 0   0   0   0   0   0   0   0   0   0   0   0   0   0   0   0   0   0   0   0   0   0   0   0   0   0   0   0   0   0   0   0   0   0   0   0   0   0   0   0   0   0   0   0   0   0   0   0   0   0  32  31  24  21  24  23  23  33  26  33  
 0   0   0   0   0   0   0   0   0   0   0   0   0   0   0   0   0   0   0   0   0   0   0   0   0   0   0   0   0   0   0   0   0   0   0   0   0   0   0   0   0   0   0   0   0   0   0   0   0   0   0  24  23  21  24  27  22  24  27  24  
 0   0   0   0   0   0   0   0   0   0   0   0   0   0   0   0   0   0   0   0   0   0   0   0   0   0   0   0   0   0   0   0   0   0   0   0   0   0   0   0   0   0   0   0   0   0   0   0   0   0   0   0  24  24  18  24  24  24  20  18  
 0   0   0   0   0   0   0   0   0   0   0   0   0   0   0   0   0   0   0   0   0   0   0   0   0   0   0   0   0   0   0   0   0   0   0   0   0   0   0   0   0   0   0   0   0   0   0   0   0   0   0   0   0  24  19  25  25  29  25  24  
 0   0   0   0   0   0   0   0   0   0   0   0   0   0   0   0   0   0   0   0   0   0   0   0   0   0   0   0   0   0   0   0   0   0   0   0   0   0   0   0   0   0   0   0   0   0   0   0   0   0   0   0   0   0  24  18  21  24  27  24  
 0   0   0   0   0   0   0   0   0   0   0   0   0   0   0   0   0   0   0   0   0   0   0   0   0   0   0   0   0   0   0   0   0   0   0   0   0   0   0   0   0   0   0   0   0   0   0   0   0   0   0   0   0   0   0  24  24  29  25  18  
 0   0   0   0   0   0   0   0   0   0   0   0   0   0   0   0   0   0   0   0   0   0   0   0   0   0   0   0   0   0   0   0   0   0   0   0   0   0   0   0   0   0   0   0   0   0   0   0   0   0   0   0   0   0   0   0  27  24  20  24  
 0   0   0   0   0   0   0   0   0   0   0   0   0   0   0   0   0   0   0   0   0   0   0   0   0   0   0   0   0   0   0   0   0   0   0   0   0   0   0   0   0   0   0   0   0   0   0   0   0   0   0   0   0   0   0   0   0  24  27  24  
 0   0   0   0   0   0   0   0   0   0   0   0   0   0   0   0   0   0   0   0   0   0   0   0   0   0   0   0   0   0   0   0   0   0   0   0   0   0   0   0   0   0   0   0   0   0   0   0   0   0   0   0   0   0   0   0   0   0  33  11  
 0   0   0   0   0   0   0   0   0   0   0   0   0   0   0   0   0   0   0   0   0   0   0   0   0   0   0   0   0   0   0   0   0   0   0   0   0   0   0   0   0   0   0   0   0   0   0   0   0   0   0   0   0   0   0   0   0   0   0  43  
 0   0   0   0   0   0   0   0   0   0   0   0   0   0   0   0   0   0   0   0   0   0   0   0   0   0   0   0   0   0   0   0   0   0   0   0   0   0   0   0   0   0   0   0   0   0   0   0   0   0   0   0   0   0   0   0   0   0   0   0  
